Minimize
 obj: 0
Subject to

\true constraints
   78 X1
 +    72 X2
 +    62 X3
 +    99 X4
 +    68 X5
 +    95 X6
 +    62 X7
 +    68 X8
 +    66 X9
 +    95 X10
< 382.500000

\multiple objectives
 -  85 X1
 -    77 X2
 -    83 X3
 -    96 X4
 -    83 X5
 -    65 X6
 -    81 X7
 -    68 X8
 -    64 X9
 -    94 X10
< 1
 -  63 X1
 -    99 X2
 -    67 X3
 -    98 X4
 -    97 X5
 -    86 X6
 -    87 X7
 -    87 X8
 -    92 X9
 -    93 X10
< 2
 -  97 X1
 -    69 X2
 -    87 X3
 -    94 X4
 -    90 X5
 -    99 X6
 -    97 X7
 -    64 X8
 -    86 X9
 -    91 X10
< 3
 -  66 X1
 -    65 X2
 -    99 X3
 -    82 X4
 -    80 X5
 -    95 X6
 -    65 X7
 -    69 X8
 -    60 X9
 -    61 X10
< 4
 -  98 X1
 -    91 X2
 -    81 X3
 -    61 X4
 -    89 X5
 -    93 X6
 -    67 X7
 -    95 X8
 -    66 X9
 -    68 X10
< 5
 -  71 X1
 -    78 X2
 -   100 X3
 -    96 X4
 -    94 X5
 -    63 X6
 -    65 X7
 -    76 X8
 -    70 X9
 -    70 X10
< 6
 -  67 X1
 -    75 X2
 -    92 X3
 -    68 X4
 -    77 X5
 -    98 X6
 -    68 X7
 -    80 X8
 -    96 X9
 -    80 X10
< 7



BINARY
X1
X2
X3
X4
X5
X6
X7
X8
X9
X10
END
